numOfMachines = 4;
numOfRobots = 2;
numOfJobs = 5;
maxOperations = 5;
operationsCount = [3,3,4,4,5];

operation = [
[<0,0,0>,<4,22,0>,<1,20,1>,<2,14,0 >],
[<0,0,0>,<3,24,0>,<2,20,0>,<4,16,0 >],
[<0,0,0>,<2,14,0>,<3,20,0>,<1,18,1>,<3,16,0 >],
[<0,0,0>,<2,14,0>,<4,16,0>,<1,24,0>,<2,12,0 >],
[<0,0,0>,<1,18,0>,<2,14,0>,<4,16,0>,<2,20,1>,<3,16,0>]
];
